p edge 25 37
e 0 3
e 0 16
e 0 19
e 0 20
e 1 20
e 2 3
e 2 6
e 2 16
e 2 18
e 2 21
e 3 11
e 5 11
e 6 9
e 7 24
e 8 10
e 8 11
e 8 12
e 8 13
e 8 24
e 9 10
e 9 13
e 9 18
e 9 24
e 10 20
e 11 13
e 11 17
e 12 13
e 13 16
e 13 20
e 13 24
e 15 21
e 15 22
e 16 17
e 16 20
e 17 21
e 18 22
e 21 22
